106553
24,41,54,22,11,2,56,33,48,46,59,80,50,71,42,1,34,29,37,15,10,74,81,31,73,39,32,26,6,55,16,57,8,76,19,70,65,35,25,75,66,13,69,61,79,53,45,44,72,63,28,9,0,36,17,12,20,47,23,30,18,4,21,43,67,58,27,78,5,60,82,7,52,3,64,49,62,38,51,40,77,68,14
